--- Job M1_4_E5e.gms Start 11/08/25 18:11:55 51.2.1 5fb43f63 DEX-DEG x86 64bit/macOS
--- Applying:
    /Library/Frameworks/GAMS.framework/Versions/51/Resources/gmsprmun.txt
--- GAMS Parameters defined
    Input /Users/pm.deoliveiradejes/Desktop/M2_AGPE_models/Ejemplo_5_MILP/gams/M1_4_E5e.gms
    PageSize 0
    ScrDir /Users/pm.deoliveiradejes/Desktop/M2_AGPE_models/Ejemplo_5_MILP/gams/225a/
    SysDir /Library/Frameworks/GAMS.framework/Versions/51/Resources/
    LogOption 3
    AppendLog 1
    ErrMsg 1
    ErrorLog 99
    IDE 1
    LstTitleLeftAligned 1
Licensee: GAMS Demo, for EULA and demo limitations see   G250826+0003Cc-GEN
          https://www.gams.com/latest/docs/UG%5FLicense.html         DC0000
          /Users/pm.deoliveiradejes/Library/Application Support/GAMS/gamslice.txt
          v:2                                                              
          Demo license for demonstration and instructional purposes only
System information: 4 physical cores and 16 Gb physical memory detected
GAMS 51.2.1   Copyright (C) 1987-2025 GAMS Development. All rights reserved
--- Starting compilation
--- M1_4_E5e.gms(110) 3 Mb
--- Starting execution: elapsed 0:00:00.011
--- M1_4_E5e.gms(83) 4 Mb
--- Generating MIP model modelAGspain
--- M1_4_E5e.gms(110) 4 Mb
---   181 rows  181 columns  570 non-zeroes
---   48 discrete-columns
--- Range statistics (absolute non-zero finite values)
--- RHS       [min, max] : [ 7.296E+00, 9.596E+05] - Zero values observed as well
--- Bound     [min, max] : [ 1.000E+00, 1.900E+03] - Zero values observed as well
--- Matrix    [min, max] : [ 9.300E-01, 6.000E+02]
--- Executing CPLEX (Solvelink=2): elapsed 0:00:00.090

IBM ILOG CPLEX   51.2.1 5fb43f63 Oct 13, 2025          DEG x86 64bit/macOS    

*** This solver runs with a demo license. No commercial use.
--- GMO setup time: 0.00s
--- GMO memory 0.54 Mb (peak 0.54 Mb)
--- Dictionary memory 0.00 Mb
--- Cplex 22.1.2.0 link memory 0.01 Mb (peak 0.02 Mb)
--- Starting Cplex

Version identifier: 22.1.2.0 | 2024-12-02 | 8bd2200c8
CPXPARAM_Advance                                 0
CPXPARAM_MIP_Display                             4
CPXPARAM_MIP_Pool_Capacity                       0
CPXPARAM_MIP_Tolerances_AbsMIPGap                0
Generic callback                                 0x50
Tried aggregator 2 times.
MIP Presolve eliminated 43 rows and 21 columns.
MIP Presolve modified 27 coefficients.
Aggregator did 3 substitutions.
Reduced MIP has 135 rows, 158 columns, and 359 nonzeros.
Reduced MIP has 45 binaries, 0 generals, 0 SOSs, and 0 indicators.
Presolve time = 0.00 sec. (0.30 ticks)
Found incumbent of value -39421.372618 after 0.01 sec. (0.58 ticks)
Probing fixed 0 vars, tightened 50 bounds.
Probing time = 0.00 sec. (0.05 ticks)
Tried aggregator 2 times.
Detecting symmetries...
MIP Presolve modified 71 coefficients.
Aggregator did 1 substitutions.
Reduced MIP has 134 rows, 157 columns, and 357 nonzeros.
Reduced MIP has 45 binaries, 0 generals, 0 SOSs, and 0 indicators.
Presolve time = 0.00 sec. (0.28 ticks)
Probing time = 0.00 sec. (0.04 ticks)
Clique table members: 22.
MIP emphasis: balance optimality and feasibility.
MIP search method: dynamic search.
Parallel mode: deterministic, using up to 8 threads.
Parallel mode: deterministic, using up to 2 threads for parallel tasks at root LP.
Tried aggregator 1 time.
Aggregator did 45 substitutions.
Reduced LP has 89 rows, 112 columns, and 267 nonzeros.
Presolve time = 0.00 sec. (0.09 ticks)
Initializing dual steep norms . . .

Iteration log . . .
Iteration:     1   Dual objective     =         75968.792314
Initializing dual steep norms . . .

Iteration log . . .
Iteration:     1   Dual objective     =        -20246.595492
Root relaxation solution time = 0.00 sec. (0.35 ticks)

        Nodes                                         Cuts/
   Node  Left     Objective  IInf  Best Integer    Best Bound    ItCnt     Gap

*     0+    0                       -39421.3726   171432.6444           534.87%
Found incumbent of value -39421.372618 after 0.02 sec. (1.45 ticks)
*     0     0      integral     0   -20246.5955   -20246.5955       26    0.00%
Elapsed time = 0.02 sec. (1.49 ticks, tree = 0.00 MB)
Found incumbent of value -20246.595492 after 0.02 sec. (1.49 ticks)

Root node processing (before b&c):
  Real time             =    0.02 sec. (1.50 ticks)
Parallel b&c, 8 threads:
  Real time             =    0.00 sec. (0.00 ticks)
  Sync time (average)   =    0.00 sec.
  Wait time (average)   =    0.00 sec.
                          ------------
Total (root+branch&cut) =    0.02 sec. (1.50 ticks)

--- MIP status (101): integer optimal solution.
--- Cplex Time: 0.02sec (det. 1.50 ticks)

--- Returning a primal only solution to GAMS (marginals all set to NA).
--- Fixing integer variables and solving final LP...

Version identifier: 22.1.2.0 | 2024-12-02 | 8bd2200c8
CPXPARAM_Advance                                 2
CPXPARAM_MIP_Display                             4
CPXPARAM_MIP_Pool_Capacity                       0
CPXPARAM_MIP_Tolerances_AbsMIPGap                0
Tried aggregator 1 time.
LP Presolve eliminated 139 rows and 116 columns.
Aggregator did 39 substitutions.
Reduced LP has 3 rows, 27 columns, and 29 nonzeros.
Presolve time = 0.00 sec. (0.11 ticks)
Initializing dual steep norms . . .

Iteration log . . .
Iteration:     1   Dual objective     =        -20130.666664

--- Fixed MIP status (1): optimal.
--- Cplex Time: 0.00sec (det. 0.19 ticks)


Proven optimal solution
MIP Solution:       -20246.595492    (26 iterations, 0 nodes)
Final Solve:        -20246.595492    (2 iterations)

Best possible:      -20246.595492
Absolute gap:           -0.000000
Relative gap:           -0.000000

--- Reading solution for model modelAGspain
--- Executing after solve: elapsed 0:00:00.762
--- GDX File (execute_unload) /Users/pm.deoliveiradejes/Desktop/M2_AGPE_models/Ejemplo_5_MILP/gams/Results M1_4_E5e.gdx
*** Status: Normal completion
--- Job M1_4_E5e.gms Stop 11/08/25 18:11:56 elapsed 0:00:00.764
